%nosave
%chk=IM5_tsopt_Ropt.chk
#p PM7 opt=readfc geom=check guess=read freq=noraman pop=none

title

1 1




